language ESSENCE' 1.0
$ minion Nodes: 20
$ minion TotalTime: 0.001316
$ Savile Row TotalTime: 0.393
letting valid_SetExplicitVarSizeWithMarker_tuple1 be 1
letting valid_SetExplicitVarSizeWithMarker_tuple2_Matrix1D be [[1, 1, 1;int(1..3)], 
[1, 1, 1;int(1..3)], 
[1, 1, 1;int(1..3)], 
[1, 1, 1;int(1..3)], 
[1, 1, 1;int(1..3)], 
[1, 1, 1;int(1..3)];int(1..6)]
